# Solution for model condensation_srl_ilp
# Objective value = 8.1764634387477404e+00
Z_217_0_0 0
Z_217_0_1 0
Z_217_0_2 0
Z_217_0_3 1
Z_271_0_0 0
Z_271_0_1 1
Z_271_0_2 0
Z_271_0_3 0
Z_461_2_0 0
Z_461_2_1 0
Z_461_2_2 1
Z_461_2_3 0
Z_461_1_0 1
Z_461_1_1 0
Z_461_1_2 0
Z_461_1_3 0
Z_461_0_0 0
Z_461_0_1 0
Z_461_0_2 0
Z_461_0_3 1
Z_280_0_0 0
Z_280_0_1 1
Z_280_0_2 0
Z_280_0_3 0
Z_485_0_0 0
Z_485_0_1 1
Z_485_0_2 0
Z_485_0_3 0
Z_138_0_0 0
Z_138_0_1 1
Z_138_0_2 0
Z_138_0_3 0
Z_175_0_0 0
Z_175_0_1 1
Z_175_0_2 0
Z_175_0_3 0
Z_109_4_0 0
Z_109_4_1 0
Z_109_4_2 1
Z_109_4_3 0
Z_109_2_0 0
Z_109_2_1 0
Z_109_2_2 0
Z_109_2_3 0
Z_109_1_0 0
Z_109_1_1 0
Z_109_1_2 0
Z_109_1_3 0
Z_109_5_0 0
Z_109_5_1 1
Z_109_5_2 0
Z_109_5_3 0
Z_109_0_0 1
Z_109_0_1 0
Z_109_0_2 0
Z_109_0_3 0
Z_109_3_0 0
Z_109_3_1 0
Z_109_3_2 0
Z_109_3_3 1
Z_548_6_0 0
Z_548_6_1 0
Z_548_6_2 0
Z_548_6_3 1
Z_548_0_0 0
Z_548_0_1 0
Z_548_0_2 1
Z_548_0_3 0
Z_548_1_0 0
Z_548_1_1 1
Z_548_1_2 0
Z_548_1_3 0
Z_126_0_0 0
Z_126_0_1 1
Z_126_0_2 0
Z_126_0_3 0
